p cnf 14 64
-5 6 -12 0
1 4 10 0
-3 9 10 0
1 2 10 0
-1 -2 3 0
-6 -9 -11 0
-1 -7 -11 0
-4 -8 12 0
2 9 -14 0
1 7 13 0
1 2 5 0
4 -5 14 0
-3 -9 12 0
-7 11 -14 0
-5 12 13 0
-3 12 14 0
2 -7 -9 0
-1 7 -10 0
1 -3 13 0
-7 -11 13 0
-4 -6 -11 0
6 7 9 0
6 -9 11 0
2 -8 -11 0
-3 -4 -9 0
-5 11 14 0
-3 8 -11 0
1 2 -13 0
4 -5 -13 0
-1 -11 14 0
4 -6 -11 0
-3 -5 -13 0
7 -10 13 0
-4 -6 -10 0
4 5 -6 0
4 6 7 0
4 6 12 0
9 -11 -14 0
-6 8 9 0
1 -2 -14 0
4 -5 9 0
1 10 14 0
6 9 -13 0
-2 5 -8 0
-2 -8 -10 0
5 -11 -14 0
2 -6 -11 0
1 8 12 0
-2 -3 -9 0
-5 9 -10 0
-3 -4 -13 0
-7 -12 13 0
4 11 -14 0
4 5 12 0
3 -6 -9 0
4 -7 11 0
2 -8 -9 0
8 9 -13 0
4 6 -8 0
3 7 -13 0
6 7 10 0
-7 -10 -13 0
-2 -7 -10 0
1 2 -11 0
